(declare-const p575 Real)
(declare-const p4 Real)
(declare-const fee_bl Real)
(declare-const income Real)
(declare-const p3 Real)
(declare-const p475 Real)
(declare-const p550 Real)
(declare-const p5 Real)
(declare-const p2 Real)
(declare-const p525 Real)
(assert (= p2 (* 0.02 (ite (> income 1000) 1000 income))))
(assert (= p3 (ite (> income 1000) (* 0.03 (- (ite (> income 2000) 2000 income) 1000)) 0)))
(assert (= p4 (ite (> income 2000) (* 0.04 (- (ite (> income 3000) 3000 income) 2000)) 0)))
(assert (= p475 (ite (> income 3000) (* 0.0475 (- (ite (> income 150000) 150000 income) 3000)) 0)))
(assert (= p5 (ite (> income 150000) (* 0.05 (- (ite (> income 175000) 175000 income) 150000)) 0)))
(assert (= p525 (ite (> income 175000) (* 0.0525 (- (ite (> income 225000) 225000 income) 175000)) 0)))
(assert (= p550 (ite (> income 225000) (* 0.055 (- (ite (> income 300000) 300000 income) 225000)) 0)))
(assert (= p575 (ite (> income 300000) (* 0.0575 (- income 300000)) 0)))
(assert (= fee_bl (+ (+ (+ (+ (+ (+ (+ p2 p3) p4) p475) p5) p525) p550) p575)))